data/solutions/recovery/degenerate/moderate/binding/degenerate_moderate_instance20/37.sol
Elapsed time: 0.03
Upper bound: 165024629.0
Planning weighted value: 2251125995.0
C[0]=165024629.0
C[1]=160200555.0
C[2]=153273894.0
C[3]=138450788.0
y[0]=2
y[1]=2
y[2]=1
y[3]=1
y[4]=2
y[5]=3
y[6]=0
y[7]=0
y[8]=1
y[9]=3
y[10]=0
y[11]=3
y[12]=1
y[13]=0
y[14]=1
y[15]=3
y[16]=1
y[17]=2
y[18]=3
y[19]=3
y[20]=2
y[21]=3
y[22]=2
y[23]=0
y[24]=0
y[25]=0
y[26]=0
y[27]=1
y[28]=1
y[29]=3
y[30]=0
y[31]=2
y[32]=2
y[33]=2
y[34]=1
y[35]=1
